NAME : portgen-50-308
COMMENT : portgen N=50, seed=308
TYPE : TSP
DIMENSION : 50
EDGE_WEIGHT_TYPE : EUC_2D
NODE_COORD_SECTION
1 2522 3121
2 2708 1587
3 1522 1019
4 258 1443
5 223 2023
6 2890 689
7 2104 1456
8 132 36
9 2060 94
10 2351 911
11 235 2261
12 1627 2357
13 1784 2782
14 2357 936
15 53 1975
16 2340 1536
17 2271 1672
18 17 46
19 489 2521
20 1709 2258
21 2856 2297
22 2132 1436
23 2115 270
24 8 1551
25 476 2764
26 2894 1446
27 661 2773
28 995 986
29 850 1035
30 1569 1476
31 529 900
32 2897 1128
33 2330 593
34 1720 668
35 2504 3024
36 27 509
37 2781 2749
38 1180 1952
39 1599 2017
40 1362 798
41 1932 1321
42 2530 1739
43 1445 1439
44 1802 1143
45 2505 2587
46 1489 2984
47 16 1847
48 2230 2347
49 2679 2545
50 256 162
